p cnf 66 1342
c ind 2 5 6 12 13 14 15 16 17  0
c ind 18 19 20 21 25 26 28 29 30 32  0
c ind 33 34 36 37 38 39 40 41 42 43  0
c ind 44 45 46 47 48 49 50 51 53 57  0
c ind 61 62 63 65 66  0
1 -2 12 0
1 -3 13 0
1 -4 14 0
1 -5 15 0
1 -6 16 0
1 -7 17 0
1 -8 18 0
1 -9 19 0
1 -10 20 0
1 -11 21 0
2 -1 -12 0
2 -3 22 0
2 -4 23 0
2 -5 24 0
2 -6 25 0
2 -7 26 0
2 -8 27 0
2 -9 28 0
2 -10 29 0
2 -11 30 0
3 -1 -13 0
3 -2 -22 0
3 -4 31 0
3 -5 32 0
3 -6 33 0
3 -7 34 0
3 -8 35 0
3 -9 36 0
3 -10 37 0
3 -11 38 0
4 -1 -14 0
4 -2 -23 0
4 -3 -31 0
4 -5 39 0
4 -6 40 0
4 -7 41 0
4 -8 42 0
4 -9 43 0
4 -10 44 0
4 -11 45 0
5 -1 -15 0
5 -2 -24 0
5 -3 -32 0
5 -4 -39 0
5 -6 46 0
5 -7 47 0
5 -8 48 0
5 -9 49 0
5 -10 50 0
5 -11 51 0
6 -1 -16 0
6 -2 -25 0
6 -3 -33 0
6 -4 -40 0
6 -5 -46 0
6 -7 52 0
6 -8 53 0
6 -9 54 0
6 -10 55 0
6 -11 56 0
7 -1 -17 0
7 -2 -26 0
7 -3 -34 0
7 -4 -41 0
7 -5 -47 0
7 -6 -52 0
7 -8 57 0
7 -9 58 0
7 -10 59 0
7 -11 60 0
8 -1 -18 0
8 -2 -27 0
8 -3 -35 0
8 -4 -42 0
8 -5 -48 0
8 -6 -53 0
8 -7 -57 0
8 -9 61 0
8 -10 62 0
8 -11 63 0
9 -1 -19 0
9 -2 -28 0
9 -3 -36 0
9 -4 -43 0
9 -5 -49 0
9 -6 -54 0
9 -7 -58 0
9 -8 -61 0
9 -10 64 0
9 -11 65 0
10 -1 -20 0
10 -2 -29 0
10 -3 -37 0
10 -4 -44 0
10 -5 -50 0
10 -6 -55 0
10 -7 -59 0
10 -8 -62 0
10 -9 -64 0
10 -11 66 0
11 -1 -21 0
11 -2 -30 0
11 -3 -38 0
11 -4 -45 0
11 -5 -51 0
11 -6 -56 0
11 -7 -60 0
11 -8 -63 0
11 -9 -65 0
11 -10 -66 0
-1 -12 2 0
-1 -13 3 0
-1 -14 4 0
-1 -15 5 0
-1 -16 6 0
-1 -17 7 0
-1 -18 8 0
-1 -19 9 0
-1 -20 10 0
-1 -21 11 0
12 1 -2 0
12 -13 22 0
12 -14 23 0
12 -15 24 0
12 -16 25 0
12 -17 26 0
12 -18 27 0
12 -19 28 0
12 -20 29 0
12 -21 30 0
13 1 -3 0
13 -12 -22 0
13 -14 31 0
13 -15 32 0
13 -16 33 0
13 -17 34 0
13 -18 35 0
13 -19 36 0
13 -20 37 0
13 -21 38 0
14 1 -4 0
14 -12 -23 0
14 -13 -31 0
14 -15 39 0
14 -16 40 0
14 -17 41 0
14 -18 42 0
14 -19 43 0
14 -20 44 0
14 -21 45 0
15 1 -5 0
15 -12 -24 0
15 -13 -32 0
15 -14 -39 0
15 -16 46 0
15 -17 47 0
15 -18 48 0
15 -19 49 0
15 -20 50 0
15 -21 51 0
16 1 -6 0
16 -12 -25 0
16 -13 -33 0
16 -14 -40 0
16 -15 -46 0
16 -17 52 0
16 -18 53 0
16 -19 54 0
16 -20 55 0
16 -21 56 0
17 1 -7 0
17 -12 -26 0
17 -13 -34 0
17 -14 -41 0
17 -15 -47 0
17 -16 -52 0
17 -18 57 0
17 -19 58 0
17 -20 59 0
17 -21 60 0
18 1 -8 0
18 -12 -27 0
18 -13 -35 0
18 -14 -42 0
18 -15 -48 0
18 -16 -53 0
18 -17 -57 0
18 -19 61 0
18 -20 62 0
18 -21 63 0
19 1 -9 0
19 -12 -28 0
19 -13 -36 0
19 -14 -43 0
19 -15 -49 0
19 -16 -54 0
19 -17 -58 0
19 -18 -61 0
19 -20 64 0
19 -21 65 0
20 1 -10 0
20 -12 -29 0
20 -13 -37 0
20 -14 -44 0
20 -15 -50 0
20 -16 -55 0
20 -17 -59 0
20 -18 -62 0
20 -19 -64 0
20 -21 66 0
21 1 -11 0
21 -12 -30 0
21 -13 -38 0
21 -14 -45 0
21 -15 -51 0
21 -16 -56 0
21 -17 -60 0
21 -18 -63 0
21 -19 -65 0
21 -20 -66 0
-2 12 1 0
-2 -22 3 0
-2 -23 4 0
-2 -24 5 0
-2 -25 6 0
-2 -26 7 0
-2 -27 8 0
-2 -28 9 0
-2 -29 10 0
-2 -30 11 0
-12 2 -1 0
-12 -22 13 0
-12 -23 14 0
-12 -24 15 0
-12 -25 16 0
-12 -26 17 0
-12 -27 18 0
-12 -28 19 0
-12 -29 20 0
-12 -30 21 0
22 2 -3 0
22 12 -13 0
22 -23 31 0
22 -24 32 0
22 -25 33 0
22 -26 34 0
22 -27 35 0
22 -28 36 0
22 -29 37 0
22 -30 38 0
23 2 -4 0
23 12 -14 0
23 -22 -31 0
23 -24 39 0
23 -25 40 0
23 -26 41 0
23 -27 42 0
23 -28 43 0
23 -29 44 0
23 -30 45 0
24 2 -5 0
24 12 -15 0
24 -22 -32 0
24 -23 -39 0
24 -25 46 0
24 -26 47 0
24 -27 48 0
24 -28 49 0
24 -29 50 0
24 -30 51 0
25 2 -6 0
25 12 -16 0
25 -22 -33 0
25 -23 -40 0
25 -24 -46 0
25 -26 52 0
25 -27 53 0
25 -28 54 0
25 -29 55 0
25 -30 56 0
26 2 -7 0
26 12 -17 0
26 -22 -34 0
26 -23 -41 0
26 -24 -47 0
26 -25 -52 0
26 -27 57 0
26 -28 58 0
26 -29 59 0
26 -30 60 0
27 2 -8 0
27 12 -18 0
27 -22 -35 0
27 -23 -42 0
27 -24 -48 0
27 -25 -53 0
27 -26 -57 0
27 -28 61 0
27 -29 62 0
27 -30 63 0
28 2 -9 0
28 12 -19 0
28 -22 -36 0
28 -23 -43 0
28 -24 -49 0
28 -25 -54 0
28 -26 -58 0
28 -27 -61 0
28 -29 64 0
28 -30 65 0
29 2 -10 0
29 12 -20 0
29 -22 -37 0
29 -23 -44 0
29 -24 -50 0
29 -25 -55 0
29 -26 -59 0
29 -27 -62 0
29 -28 -64 0
29 -30 66 0
30 2 -11 0
30 12 -21 0
30 -22 -38 0
30 -23 -45 0
30 -24 -51 0
30 -25 -56 0
30 -26 -60 0
30 -27 -63 0
30 -28 -65 0
30 -29 -66 0
-3 13 1 0
-3 22 2 0
-3 -31 4 0
-3 -32 5 0
-3 -33 6 0
-3 -34 7 0
-3 -35 8 0
-3 -36 9 0
-3 -37 10 0
-3 -38 11 0
-13 3 -1 0
-13 22 12 0
-13 -31 14 0
-13 -32 15 0
-13 -33 16 0
-13 -34 17 0
-13 -35 18 0
-13 -36 19 0
-13 -37 20 0
-13 -38 21 0
-22 3 -2 0
-22 13 -12 0
-22 -31 23 0
-22 -32 24 0
-22 -33 25 0
-22 -34 26 0
-22 -35 27 0
-22 -36 28 0
-22 -37 29 0
-22 -38 30 0
31 3 -4 0
31 13 -14 0
31 22 -23 0
31 -32 39 0
31 -33 40 0
31 -34 41 0
31 -35 42 0
31 -36 43 0
31 -37 44 0
31 -38 45 0
32 3 -5 0
32 13 -15 0
32 22 -24 0
32 -31 -39 0
32 -33 46 0
32 -34 47 0
32 -35 48 0
32 -36 49 0
32 -37 50 0
32 -38 51 0
33 3 -6 0
33 13 -16 0
33 22 -25 0
33 -31 -40 0
33 -32 -46 0
33 -34 52 0
33 -35 53 0
33 -36 54 0
33 -37 55 0
33 -38 56 0
34 3 -7 0
34 13 -17 0
34 22 -26 0
34 -31 -41 0
34 -32 -47 0
34 -33 -52 0
34 -35 57 0
34 -36 58 0
34 -37 59 0
34 -38 60 0
35 3 -8 0
35 13 -18 0
35 22 -27 0
35 -31 -42 0
35 -32 -48 0
35 -33 -53 0
35 -34 -57 0
35 -36 61 0
35 -37 62 0
35 -38 63 0
36 3 -9 0
36 13 -19 0
36 22 -28 0
36 -31 -43 0
36 -32 -49 0
36 -33 -54 0
36 -34 -58 0
36 -35 -61 0
36 -37 64 0
36 -38 65 0
37 3 -10 0
37 13 -20 0
37 22 -29 0
37 -31 -44 0
37 -32 -50 0
37 -33 -55 0
37 -34 -59 0
37 -35 -62 0
37 -36 -64 0
37 -38 66 0
38 3 -11 0
38 13 -21 0
38 22 -30 0
38 -31 -45 0
38 -32 -51 0
38 -33 -56 0
38 -34 -60 0
38 -35 -63 0
38 -36 -65 0
38 -37 -66 0
-4 14 1 0
-4 23 2 0
-4 31 3 0
-4 -39 5 0
-4 -40 6 0
-4 -41 7 0
-4 -42 8 0
-4 -43 9 0
-4 -44 10 0
-4 -45 11 0
-14 4 -1 0
-14 23 12 0
-14 31 13 0
-14 -39 15 0
-14 -40 16 0
-14 -41 17 0
-14 -42 18 0
-14 -43 19 0
-14 -44 20 0
-14 -45 21 0
-23 4 -2 0
-23 14 -12 0
-23 31 22 0
-23 -39 24 0
-23 -40 25 0
-23 -41 26 0
-23 -42 27 0
-23 -43 28 0
-23 -44 29 0
-23 -45 30 0
-31 4 -3 0
-31 14 -13 0
-31 23 -22 0
-31 -39 32 0
-31 -40 33 0
-31 -41 34 0
-31 -42 35 0
-31 -43 36 0
-31 -44 37 0
-31 -45 38 0
39 4 -5 0
39 14 -15 0
39 23 -24 0
39 31 -32 0
39 -40 46 0
39 -41 47 0
39 -42 48 0
39 -43 49 0
39 -44 50 0
39 -45 51 0
40 4 -6 0
40 14 -16 0
40 23 -25 0
40 31 -33 0
40 -39 -46 0
40 -41 52 0
40 -42 53 0
40 -43 54 0
40 -44 55 0
40 -45 56 0
41 4 -7 0
41 14 -17 0
41 23 -26 0
41 31 -34 0
41 -39 -47 0
41 -40 -52 0
41 -42 57 0
41 -43 58 0
41 -44 59 0
41 -45 60 0
42 4 -8 0
42 14 -18 0
42 23 -27 0
42 31 -35 0
42 -39 -48 0
42 -40 -53 0
42 -41 -57 0
42 -43 61 0
42 -44 62 0
42 -45 63 0
43 4 -9 0
43 14 -19 0
43 23 -28 0
43 31 -36 0
43 -39 -49 0
43 -40 -54 0
43 -41 -58 0
43 -42 -61 0
43 -44 64 0
43 -45 65 0
44 4 -10 0
44 14 -20 0
44 23 -29 0
44 31 -37 0
44 -39 -50 0
44 -40 -55 0
44 -41 -59 0
44 -42 -62 0
44 -43 -64 0
44 -45 66 0
45 4 -11 0
45 14 -21 0
45 23 -30 0
45 31 -38 0
45 -39 -51 0
45 -40 -56 0
45 -41 -60 0
45 -42 -63 0
45 -43 -65 0
45 -44 -66 0
-5 15 1 0
-5 24 2 0
-5 32 3 0
-5 39 4 0
-5 -46 6 0
-5 -47 7 0
-5 -48 8 0
-5 -49 9 0
-5 -50 10 0
-5 -51 11 0
-15 5 -1 0
-15 24 12 0
-15 32 13 0
-15 39 14 0
-15 -46 16 0
-15 -47 17 0
-15 -48 18 0
-15 -49 19 0
-15 -50 20 0
-15 -51 21 0
-24 5 -2 0
-24 15 -12 0
-24 32 22 0
-24 39 23 0
-24 -46 25 0
-24 -47 26 0
-24 -48 27 0
-24 -49 28 0
-24 -50 29 0
-24 -51 30 0
-32 5 -3 0
-32 15 -13 0
-32 24 -22 0
-32 39 31 0
-32 -46 33 0
-32 -47 34 0
-32 -48 35 0
-32 -49 36 0
-32 -50 37 0
-32 -51 38 0
-39 5 -4 0
-39 15 -14 0
-39 24 -23 0
-39 32 -31 0
-39 -46 40 0
-39 -47 41 0
-39 -48 42 0
-39 -49 43 0
-39 -50 44 0
-39 -51 45 0
46 5 -6 0
46 15 -16 0
46 24 -25 0
46 32 -33 0
46 39 -40 0
46 -47 52 0
46 -48 53 0
46 -49 54 0
46 -50 55 0
46 -51 56 0
47 5 -7 0
47 15 -17 0
47 24 -26 0
47 32 -34 0
47 39 -41 0
47 -46 -52 0
47 -48 57 0
47 -49 58 0
47 -50 59 0
47 -51 60 0
48 5 -8 0
48 15 -18 0
48 24 -27 0
48 32 -35 0
48 39 -42 0
48 -46 -53 0
48 -47 -57 0
48 -49 61 0
48 -50 62 0
48 -51 63 0
49 5 -9 0
49 15 -19 0
49 24 -28 0
49 32 -36 0
49 39 -43 0
49 -46 -54 0
49 -47 -58 0
49 -48 -61 0
49 -50 64 0
49 -51 65 0
50 5 -10 0
50 15 -20 0
50 24 -29 0
50 32 -37 0
50 39 -44 0
50 -46 -55 0
50 -47 -59 0
50 -48 -62 0
50 -49 -64 0
50 -51 66 0
51 5 -11 0
51 15 -21 0
51 24 -30 0
51 32 -38 0
51 39 -45 0
51 -46 -56 0
51 -47 -60 0
51 -48 -63 0
51 -49 -65 0
51 -50 -66 0
-6 16 1 0
-6 25 2 0
-6 33 3 0
-6 40 4 0
-6 46 5 0
-6 -52 7 0
-6 -53 8 0
-6 -54 9 0
-6 -55 10 0
-6 -56 11 0
-16 6 -1 0
-16 25 12 0
-16 33 13 0
-16 40 14 0
-16 46 15 0
-16 -52 17 0
-16 -53 18 0
-16 -54 19 0
-16 -55 20 0
-16 -56 21 0
-25 6 -2 0
-25 16 -12 0
-25 33 22 0
-25 40 23 0
-25 46 24 0
-25 -52 26 0
-25 -53 27 0
-25 -54 28 0
-25 -55 29 0
-25 -56 30 0
-33 6 -3 0
-33 16 -13 0
-33 25 -22 0
-33 40 31 0
-33 46 32 0
-33 -52 34 0
-33 -53 35 0
-33 -54 36 0
-33 -55 37 0
-33 -56 38 0
-40 6 -4 0
-40 16 -14 0
-40 25 -23 0
-40 33 -31 0
-40 46 39 0
-40 -52 41 0
-40 -53 42 0
-40 -54 43 0
-40 -55 44 0
-40 -56 45 0
-46 6 -5 0
-46 16 -15 0
-46 25 -24 0
-46 33 -32 0
-46 40 -39 0
-46 -52 47 0
-46 -53 48 0
-46 -54 49 0
-46 -55 50 0
-46 -56 51 0
52 6 -7 0
52 16 -17 0
52 25 -26 0
52 33 -34 0
52 40 -41 0
52 46 -47 0
52 -53 57 0
52 -54 58 0
52 -55 59 0
52 -56 60 0
53 6 -8 0
53 16 -18 0
53 25 -27 0
53 33 -35 0
53 40 -42 0
53 46 -48 0
53 -52 -57 0
53 -54 61 0
53 -55 62 0
53 -56 63 0
54 6 -9 0
54 16 -19 0
54 25 -28 0
54 33 -36 0
54 40 -43 0
54 46 -49 0
54 -52 -58 0
54 -53 -61 0
54 -55 64 0
54 -56 65 0
55 6 -10 0
55 16 -20 0
55 25 -29 0
55 33 -37 0
55 40 -44 0
55 46 -50 0
55 -52 -59 0
55 -53 -62 0
55 -54 -64 0
55 -56 66 0
56 6 -11 0
56 16 -21 0
56 25 -30 0
56 33 -38 0
56 40 -45 0
56 46 -51 0
56 -52 -60 0
56 -53 -63 0
56 -54 -65 0
56 -55 -66 0
-7 17 1 0
-7 26 2 0
-7 34 3 0
-7 41 4 0
-7 47 5 0
-7 52 6 0
-7 -57 8 0
-7 -58 9 0
-7 -59 10 0
-7 -60 11 0
-17 7 -1 0
-17 26 12 0
-17 34 13 0
-17 41 14 0
-17 47 15 0
-17 52 16 0
-17 -57 18 0
-17 -58 19 0
-17 -59 20 0
-17 -60 21 0
-26 7 -2 0
-26 17 -12 0
-26 34 22 0
-26 41 23 0
-26 47 24 0
-26 52 25 0
-26 -57 27 0
-26 -58 28 0
-26 -59 29 0
-26 -60 30 0
-34 7 -3 0
-34 17 -13 0
-34 26 -22 0
-34 41 31 0
-34 47 32 0
-34 52 33 0
-34 -57 35 0
-34 -58 36 0
-34 -59 37 0
-34 -60 38 0
-41 7 -4 0
-41 17 -14 0
-41 26 -23 0
-41 34 -31 0
-41 47 39 0
-41 52 40 0
-41 -57 42 0
-41 -58 43 0
-41 -59 44 0
-41 -60 45 0
-47 7 -5 0
-47 17 -15 0
-47 26 -24 0
-47 34 -32 0
-47 41 -39 0
-47 52 46 0
-47 -57 48 0
-47 -58 49 0
-47 -59 50 0
-47 -60 51 0
-52 7 -6 0
-52 17 -16 0
-52 26 -25 0
-52 34 -33 0
-52 41 -40 0
-52 47 -46 0
-52 -57 53 0
-52 -58 54 0
-52 -59 55 0
-52 -60 56 0
57 7 -8 0
57 17 -18 0
57 26 -27 0
57 34 -35 0
57 41 -42 0
57 47 -48 0
57 52 -53 0
57 -58 61 0
57 -59 62 0
57 -60 63 0
58 7 -9 0
58 17 -19 0
58 26 -28 0
58 34 -36 0
58 41 -43 0
58 47 -49 0
58 52 -54 0
58 -57 -61 0
58 -59 64 0
58 -60 65 0
59 7 -10 0
59 17 -20 0
59 26 -29 0
59 34 -37 0
59 41 -44 0
59 47 -50 0
59 52 -55 0
59 -57 -62 0
59 -58 -64 0
59 -60 66 0
60 7 -11 0
60 17 -21 0
60 26 -30 0
60 34 -38 0
60 41 -45 0
60 47 -51 0
60 52 -56 0
60 -57 -63 0
60 -58 -65 0
60 -59 -66 0
-8 18 1 0
-8 27 2 0
-8 35 3 0
-8 42 4 0
-8 48 5 0
-8 53 6 0
-8 57 7 0
-8 -61 9 0
-8 -62 10 0
-8 -63 11 0
-18 8 -1 0
-18 27 12 0
-18 35 13 0
-18 42 14 0
-18 48 15 0
-18 53 16 0
-18 57 17 0
-18 -61 19 0
-18 -62 20 0
-18 -63 21 0
-27 8 -2 0
-27 18 -12 0
-27 35 22 0
-27 42 23 0
-27 48 24 0
-27 53 25 0
-27 57 26 0
-27 -61 28 0
-27 -62 29 0
-27 -63 30 0
-35 8 -3 0
-35 18 -13 0
-35 27 -22 0
-35 42 31 0
-35 48 32 0
-35 53 33 0
-35 57 34 0
-35 -61 36 0
-35 -62 37 0
-35 -63 38 0
-42 8 -4 0
-42 18 -14 0
-42 27 -23 0
-42 35 -31 0
-42 48 39 0
-42 53 40 0
-42 57 41 0
-42 -61 43 0
-42 -62 44 0
-42 -63 45 0
-48 8 -5 0
-48 18 -15 0
-48 27 -24 0
-48 35 -32 0
-48 42 -39 0
-48 53 46 0
-48 57 47 0
-48 -61 49 0
-48 -62 50 0
-48 -63 51 0
-53 8 -6 0
-53 18 -16 0
-53 27 -25 0
-53 35 -33 0
-53 42 -40 0
-53 48 -46 0
-53 57 52 0
-53 -61 54 0
-53 -62 55 0
-53 -63 56 0
-57 8 -7 0
-57 18 -17 0
-57 27 -26 0
-57 35 -34 0
-57 42 -41 0
-57 48 -47 0
-57 53 -52 0
-57 -61 58 0
-57 -62 59 0
-57 -63 60 0
61 8 -9 0
61 18 -19 0
61 27 -28 0
61 35 -36 0
61 42 -43 0
61 48 -49 0
61 53 -54 0
61 57 -58 0
61 -62 64 0
61 -63 65 0
62 8 -10 0
62 18 -20 0
62 27 -29 0
62 35 -37 0
62 42 -44 0
62 48 -50 0
62 53 -55 0
62 57 -59 0
62 -61 -64 0
62 -63 66 0
63 8 -11 0
63 18 -21 0
63 27 -30 0
63 35 -38 0
63 42 -45 0
63 48 -51 0
63 53 -56 0
63 57 -60 0
63 -61 -65 0
63 -62 -66 0
-9 19 1 0
-9 28 2 0
-9 36 3 0
-9 43 4 0
-9 49 5 0
-9 54 6 0
-9 58 7 0
-9 61 8 0
-9 -64 10 0
-9 -65 11 0
-19 9 -1 0
-19 28 12 0
-19 36 13 0
-19 43 14 0
-19 49 15 0
-19 54 16 0
-19 58 17 0
-19 61 18 0
-19 -64 20 0
-19 -65 21 0
-28 9 -2 0
-28 19 -12 0
-28 36 22 0
-28 43 23 0
-28 49 24 0
-28 54 25 0
-28 58 26 0
-28 61 27 0
-28 -64 29 0
-28 -65 30 0
-36 9 -3 0
-36 19 -13 0
-36 28 -22 0
-36 43 31 0
-36 49 32 0
-36 54 33 0
-36 58 34 0
-36 61 35 0
-36 -64 37 0
-36 -65 38 0
-43 9 -4 0
-43 19 -14 0
-43 28 -23 0
-43 36 -31 0
-43 49 39 0
-43 54 40 0
-43 58 41 0
-43 61 42 0
-43 -64 44 0
-43 -65 45 0
-49 9 -5 0
-49 19 -15 0
-49 28 -24 0
-49 36 -32 0
-49 43 -39 0
-49 54 46 0
-49 58 47 0
-49 61 48 0
-49 -64 50 0
-49 -65 51 0
-54 9 -6 0
-54 19 -16 0
-54 28 -25 0
-54 36 -33 0
-54 43 -40 0
-54 49 -46 0
-54 58 52 0
-54 61 53 0
-54 -64 55 0
-54 -65 56 0
-58 9 -7 0
-58 19 -17 0
-58 28 -26 0
-58 36 -34 0
-58 43 -41 0
-58 49 -47 0
-58 54 -52 0
-58 61 57 0
-58 -64 59 0
-58 -65 60 0
-61 9 -8 0
-61 19 -18 0
-61 28 -27 0
-61 36 -35 0
-61 43 -42 0
-61 49 -48 0
-61 54 -53 0
-61 58 -57 0
-61 -64 62 0
-61 -65 63 0
64 9 -10 0
64 19 -20 0
64 28 -29 0
64 36 -37 0
64 43 -44 0
64 49 -50 0
64 54 -55 0
64 58 -59 0
64 61 -62 0
64 -65 66 0
65 9 -11 0
65 19 -21 0
65 28 -30 0
65 36 -38 0
65 43 -45 0
65 49 -51 0
65 54 -56 0
65 58 -60 0
65 61 -63 0
65 -64 -66 0
-10 20 1 0
-10 29 2 0
-10 37 3 0
-10 44 4 0
-10 50 5 0
-10 55 6 0
-10 59 7 0
-10 62 8 0
-10 64 9 0
-10 -66 11 0
-20 10 -1 0
-20 29 12 0
-20 37 13 0
-20 44 14 0
-20 50 15 0
-20 55 16 0
-20 59 17 0
-20 62 18 0
-20 64 19 0
-20 -66 21 0
-29 10 -2 0
-29 20 -12 0
-29 37 22 0
-29 44 23 0
-29 50 24 0
-29 55 25 0
-29 59 26 0
-29 62 27 0
-29 64 28 0
-29 -66 30 0
-37 10 -3 0
-37 20 -13 0
-37 29 -22 0
-37 44 31 0
-37 50 32 0
-37 55 33 0
-37 59 34 0
-37 62 35 0
-37 64 36 0
-37 -66 38 0
-44 10 -4 0
-44 20 -14 0
-44 29 -23 0
-44 37 -31 0
-44 50 39 0
-44 55 40 0
-44 59 41 0
-44 62 42 0
-44 64 43 0
-44 -66 45 0
-50 10 -5 0
-50 20 -15 0
-50 29 -24 0
-50 37 -32 0
-50 44 -39 0
-50 55 46 0
-50 59 47 0
-50 62 48 0
-50 64 49 0
-50 -66 51 0
-55 10 -6 0
-55 20 -16 0
-55 29 -25 0
-55 37 -33 0
-55 44 -40 0
-55 50 -46 0
-55 59 52 0
-55 62 53 0
-55 64 54 0
-55 -66 56 0
-59 10 -7 0
-59 20 -17 0
-59 29 -26 0
-59 37 -34 0
-59 44 -41 0
-59 50 -47 0
-59 55 -52 0
-59 62 57 0
-59 64 58 0
-59 -66 60 0
-62 10 -8 0
-62 20 -18 0
-62 29 -27 0
-62 37 -35 0
-62 44 -42 0
-62 50 -48 0
-62 55 -53 0
-62 59 -57 0
-62 64 61 0
-62 -66 63 0
-64 10 -9 0
-64 20 -19 0
-64 29 -28 0
-64 37 -36 0
-64 44 -43 0
-64 50 -49 0
-64 55 -54 0
-64 59 -58 0
-64 62 -61 0
-64 -66 65 0
66 10 -11 0
66 20 -21 0
66 29 -30 0
66 37 -38 0
66 44 -45 0
66 50 -51 0
66 55 -56 0
66 59 -60 0
66 62 -63 0
66 64 -65 0
-11 21 1 0
-11 30 2 0
-11 38 3 0
-11 45 4 0
-11 51 5 0
-11 56 6 0
-11 60 7 0
-11 63 8 0
-11 65 9 0
-11 66 10 0
-21 11 -1 0
-21 30 12 0
-21 38 13 0
-21 45 14 0
-21 51 15 0
-21 56 16 0
-21 60 17 0
-21 63 18 0
-21 65 19 0
-21 66 20 0
-30 11 -2 0
-30 21 -12 0
-30 38 22 0
-30 45 23 0
-30 51 24 0
-30 56 25 0
-30 60 26 0
-30 63 27 0
-30 65 28 0
-30 66 29 0
-38 11 -3 0
-38 21 -13 0
-38 30 -22 0
-38 45 31 0
-38 51 32 0
-38 56 33 0
-38 60 34 0
-38 63 35 0
-38 65 36 0
-38 66 37 0
-45 11 -4 0
-45 21 -14 0
-45 30 -23 0
-45 38 -31 0
-45 51 39 0
-45 56 40 0
-45 60 41 0
-45 63 42 0
-45 65 43 0
-45 66 44 0
-51 11 -5 0
-51 21 -15 0
-51 30 -24 0
-51 38 -32 0
-51 45 -39 0
-51 56 46 0
-51 60 47 0
-51 63 48 0
-51 65 49 0
-51 66 50 0
-56 11 -6 0
-56 21 -16 0
-56 30 -25 0
-56 38 -33 0
-56 45 -40 0
-56 51 -46 0
-56 60 52 0
-56 63 53 0
-56 65 54 0
-56 66 55 0
-60 11 -7 0
-60 21 -17 0
-60 30 -26 0
-60 38 -34 0
-60 45 -41 0
-60 51 -47 0
-60 56 -52 0
-60 63 57 0
-60 65 58 0
-60 66 59 0
-63 11 -8 0
-63 21 -18 0
-63 30 -27 0
-63 38 -35 0
-63 45 -42 0
-63 51 -48 0
-63 56 -53 0
-63 60 -57 0
-63 65 61 0
-63 66 62 0
-65 11 -9 0
-65 21 -19 0
-65 30 -28 0
-65 38 -36 0
-65 45 -43 0
-65 51 -49 0
-65 56 -54 0
-65 60 -58 0
-65 63 -61 0
-65 66 64 0
-66 11 -10 0
-66 21 -20 0
-66 30 -29 0
-66 38 -37 0
-66 45 -44 0
-66 51 -50 0
-66 56 -55 0
-66 60 -59 0
-66 63 -62 0
-66 65 -64 0
-1 0
-3 0
-22 0
-4 0
-23 0
-31 0
-24 0
-7 0
-52 0
-8 0
-27 0
-35 0
-9 0
-54 0
-58 0
-10 0
-55 0
-59 0
-64 0
-11 0
-56 0
-60 0
